1 1 2 0
1 1 3 0
1 -4 -5 0
1 -4 -2 0
1 4 -6 0
1 4 -1 0
1 7 -8 0
1 -7 -9 0
1 7 -10 0
1 7 11 0
1 -8 -12 0
1 8 -2 0
1 8 -13 0
1 8 14 0
1 -8 -10 0
1 6 15 0
1 6 -16 0
1 -6 -17 0
1 6 7 0
1 -6 1 0
1 -11 -15 0
1 11 16 0
1 11 -4 0
1 -11 -6 0
1 11 18 0
1 -11 -19 0
1 -11 -20 0
1 11 1 0
1 -2 -21 0
1 2 4 0
1 2 22 0
1 2 -23 0
1 -2 7 0
1 -2 -10 0
1 -10 24 0
1 -10 -25 0
1 -10 -21 0
1 -10 -4 0
1 10 2 0
1 10 18 0
1 -10 -26 0
1 -20 6 0
1 20 -14 0
1 -16 -13 0
1 16 -14 0
1 -16 20 0
1 16 -11 0
1 19 -12 0
1 -19 -27 0
1 -19 -28 0
1 19 -29 0
1 -15 25 0
1 -15 -6 0
1 -15 13 0
1 -15 14 0
1 15 19 0
1 -15 28 0
1 -15 -29 0
1 -14 30 0
1 14 -31 0
1 -14 -8 0
1 14 32 0
1 -14 -33 0
1 -31 30 0
1 -31 34 0
1 31 15 0
1 31 -32 0
1 31 19 0
1 31 -35 0
1 13 -12 0
1 -13 36 0
1 13 15 0
1 -13 18 0
1 -13 19 0
1 13 20 0
1 -13 -35 0
1 12 -36 0
1 12 37 0
1 -12 -24 0
1 -12 13 0
1 12 -38 0
1 12 35 0
1 39 -34 0
1 39 -27 0
1 39 -40 0
1 -39 -14 0
1 39 -18 0
1 39 28 0
1 34 27 0
1 -34 -40 0
1 34 14 0
1 -34 -29 0
1 -33 -30 0
1 33 -31 0
1 33 -27 0
1 33 -29 0
1 30 -31 0
1 -30 -33 0
1 29 15 0
1 -29 -41 0
1 -29 -42 0
1 -29 43 0
1 40 -30 0
1 40 -33 0
1 -40 -39 0
1 -40 19 0
1 40 -29 0
1 40 43 0
1 28 44 0
1 -28 32 0
1 28 -33 0
1 -28 19 0
1 -28 -43 0
1 -28 -35 0
1 27 30 0
1 -27 15 0
1 -27 41 0
1 27 33 0
1 -27 -39 0
1 -27 43 0
1 -3 45 0
1 -5 4 0
1 -9 46 0
1 -9 -47 0
1 -9 -48 0
1 9 -49 0
1 -9 -50 0
1 -9 -51 0
1 9 -52 0
1 9 7 0
1 9 -53 0
1 54 -47 0
1 -54 -48 0
1 -54 51 0
1 54 52 0
1 47 54 0
1 -47 -55 0
1 47 23 0
1 47 -3 0
1 45 -56 0
1 -45 -25 0
1 45 21 0
1 -45 -5 0
1 45 57 0
1 -45 55 0
1 45 58 0
1 45 -23 0
1 46 59 0
1 46 55 0
1 46 3 0
1 50 46 0
1 50 -60 0
1 -50 -61 0
1 -50 -54 0
1 -50 55 0
1 50 62 0
1 -50 63 0
1 50 3 0
1 23 21 0
1 23 -51 0
1 -23 -63 0
1 -23 -10 0
1 21 47 0
1 -21 48 0
1 -21 45 0
1 21 -52 0
1 21 -10 0
1 58 -47 0
1 58 -25 0
1 58 45 0
1 58 -19 0
1 58 62 0
1 58 64 0
1 58 65 0
1 -25 -15 0
1 -25 48 0
1 25 49 0
1 -25 66 0
1 25 2 0
1 -25 -45 0
1 25 -64 0
1 25 10 0
1 -49 -67 0
1 49 52 0
1 -49 -21 0
1 49 68 0
1 49 69 0
1 49 38 0
1 -49 9 0
1 -52 36 0
1 -52 25 0
1 52 -49 0
1 52 69 0
1 -52 38 0
1 -52 -18 0
1 52 58 0
1 52 70 0
1 -52 -23 0
1 52 -9 0
1 48 -67 0
1 -48 -71 0
1 48 -56 0
1 48 -72 0
1 48 -21 0
1 -48 -55 0
1 48 58 0
1 48 -9 0
1 -51 -67 0
1 51 71 0
1 -51 56 0
1 51 -48 0
1 -51 -21 0
1 -51 73 0
1 51 -9 0
1 18 24 0
1 18 6 0
1 -18 -55 0
1 18 64 0
1 18 -65 0
1 24 -56 0
1 -24 2 0
1 -24 -6 0
1 -24 64 0
1 -24 65 0
1 24 -10 0
1 38 -12 0
1 -38 -66 0
1 38 22 0
1 38 17 0
1 38 33 0
1 -38 -52 0
1 -38 64 0
1 38 26 0
1 -36 -30 0
1 -36 -12 0
1 -36 -74 0
1 -36 65 0
1 36 26 0
1 66 -36 0
1 66 24 0
1 -66 25 0
1 -66 -75 0
1 66 58 0
1 -66 35 0
1 -65 -36 0
1 65 -25 0
1 65 -32 0
1 -65 76 0
1 65 -58 0
1 -65 77 0
1 65 78 0
1 -65 35 0
1 -74 -79 0
1 74 -80 0
1 -74 -38 0
1 -74 -58 0
1 -74 77 0
1 -74 81 0
1 -64 36 0
1 64 75 0
1 64 80 0
1 -64 -18 0
1 64 -82 0
1 -64 77 0
1 -64 -81 0
1 -32 12 0
1 32 -31 0
1 -32 22 0
1 32 13 0
1 -32 17 0
1 32 14 0
1 -32 65 0
1 -32 -26 0
1 35 -67 0
1 -35 32 0
1 -35 -17 0
1 -35 13 0
1 -35 -65 0
1 35 26 0
1 44 -83 0
1 44 37 0
1 44 -27 0
1 44 80 0
1 44 22 0
1 44 -84 0
1 -44 -85 0
1 44 -78 0
1 -78 83 0
1 78 22 0
1 -78 17 0
1 -78 -84 0
1 17 86 0
1 17 87 0
1 -17 35 0
1 83 -36 0
1 -83 88 0
1 -83 -17 0
1 83 -38 0
1 83 -89 0
1 -83 -78 0
1 22 75 0
1 22 32 0
1 22 90 0
1 22 -38 0
1 22 89 0
1 22 91 0
1 22 -77 0
1 22 35 0
1 -26 -86 0
1 -26 -92 0
1 -26 -44 0
1 -26 10 0
1 -26 77 0
1 -26 -35 0
1 -41 -83 0
1 41 -27 0
1 -41 -93 0
1 41 40 0
1 41 17 0
1 41 -85 0
1 43 -28 0
1 88 -37 0
1 88 -93 0
1 -88 94 0
1 88 95 0
1 88 -96 0
1 88 92 0
1 -88 85 0
1 95 -84 0
1 -95 -42 0
1 85 97 0
1 -85 98 0
1 -85 99 0
1 85 88 0
1 85 -100 0
1 -85 14 0
1 -85 101 0
1 85 102 0
1 85 -43 0
1 -93 103 0
1 -93 99 0
1 93 -88 0
1 -93 44 0
1 93 -95 0
1 93 -43 0
1 -93 78 0
1 84 37 0
1 84 88 0
1 -84 13 0
1 -84 -95 0
1 -84 43 0
1 84 78 0
1 -37 -12 0
1 37 -97 0
1 -37 86 0
1 -37 -41 0
1 -37 44 0
1 37 84 0
1 37 104 0
1 99 93 0
1 -99 -96 0
1 -99 -105 0
1 -99 85 0
1 -102 99 0
1 102 105 0
1 102 -89 0
1 -102 42 0
1 -98 -94 0
1 98 106 0
1 -98 -101 0
1 -98 -85 0
1 -98 105 0
1 98 42 0
1 101 98 0
1 101 -96 0
1 -101 105 0
1 101 42 0
1 -42 -107 0
1 -42 -99 0
1 -96 -107 0
1 96 -98 0
1 -96 -40 0
1 -96 -99 0
1 96 -102 0
1 105 108 0
1 -105 97 0
1 -105 -98 0
1 -105 -94 0
1 -105 -88 0
1 -105 109 0
1 105 -110 0
1 105 100 0
1 -105 -28 0
1 -105 111 0
1 -94 -107 0
1 94 108 0
1 -94 97 0
1 -94 -98 0
1 94 -99 0
1 94 -105 0
1 -94 -95 0
1 112 -113 0
1 -113 114 0
1 -113 112 0
1 53 115 0
1 -53 -116 0
1 53 -117 0
1 -53 9 0
1 -53 -118 0
1 -119 -120 0
1 119 115 0
1 119 54 0
1 119 121 0
1 119 122 0
1 -119 -116 0
1 -119 118 0
1 -123 -115 0
1 -123 119 0
1 -123 113 0
1 -123 62 0
1 123 53 0
1 -123 112 0
1 -115 60 0
1 115 61 0
1 115 -119 0
1 -115 -113 0
1 -115 124 0
1 -115 -62 0
1 -115 -63 0
1 -115 53 0
1 -116 -120 0
1 116 125 0
1 116 -126 0
1 116 -127 0
1 116 -128 0
1 116 53 0
1 -120 129 0
1 120 -127 0
1 -120 -116 0
1 -120 -124 0
1 -120 -53 0
1 -120 112 0
1 63 -121 0
1 63 -23 0
1 63 -117 0
1 63 -130 0
1 -63 118 0
1 -61 115 0
1 61 127 0
1 61 -50 0
1 61 123 0
1 61 -63 0
1 -62 -131 0
1 62 -115 0
1 -62 -132 0
1 62 -121 0
1 -62 133 0
1 -62 -50 0
1 -62 58 0
1 62 134 0
1 -60 -123 0
1 -60 115 0
1 -60 126 0
1 -60 132 0
1 60 62 0
1 60 -134 0
1 -118 -135 0
1 118 -71 0
1 118 60 0
1 -118 121 0
1 118 -55 0
1 118 -62 0
1 118 -53 0
1 121 71 0
1 121 61 0
1 -117 136 0
1 -117 -125 0
1 -117 -60 0
1 -117 -61 0
1 117 -132 0
1 117 137 0
1 -117 -124 0
1 117 -62 0
1 -117 -53 0
1 132 135 0
1 -132 138 0
1 -132 119 0
1 -132 -137 0
1 132 124 0
1 132 -62 0
1 132 -63 0
1 132 53 0
1 55 131 0
1 -55 -47 0
1 -55 -133 0
1 55 -50 0
1 55 -18 0
1 -55 124 0
1 55 134 0
1 -56 24 0
1 56 -48 0
1 -56 121 0
1 56 51 0
1 -56 55 0
1 56 -118 0
1 -56 134 0
1 -139 131 0
1 -139 -71 0
1 139 -59 0
1 -139 -48 0
1 139 -121 0
1 139 140 0
1 139 -141 0
1 139 57 0
1 -139 51 0
1 -139 -137 0
1 -71 131 0
1 71 -36 0
1 -71 136 0
1 -71 142 0
1 -71 -48 0
1 71 133 0
1 71 141 0
1 71 -139 0
1 71 118 0
1 -131 -67 0
1 131 56 0
1 -131 143 0
1 -131 -80 0
1 -131 -139 0
1 -131 62 0
1 140 -67 0
1 140 -71 0
1 -140 56 0
1 140 60 0
1 -140 -80 0
1 -140 -144 0
1 134 -56 0
1 -134 -60 0
1 -134 143 0
1 134 139 0
1 -134 -145 0
1 134 146 0
1 -133 -135 0
1 133 71 0
1 133 60 0
1 133 -143 0
1 133 -147 0
1 -133 -148 0
1 133 149 0
1 133 139 0
1 -133 -134 0
1 -69 67 0
1 -69 -131 0
1 -69 -48 0
1 -69 -74 0
1 69 141 0
1 69 -64 0
1 67 -131 0
1 -67 -142 0
1 67 49 0
1 -67 74 0
1 -67 -69 0
1 67 51 0
1 -67 -52 0
1 -67 -64 0
1 67 35 0
1 -80 -59 0
1 -80 -68 0
1 80 -44 0
1 -80 -140 0
1 -80 141 0
1 80 -64 0
1 -81 59 0
1 -81 142 0
1 -81 68 0
1 81 74 0
1 -81 80 0
1 81 140 0
1 81 -141 0
1 -81 -57 0
1 81 -70 0
1 142 -67 0
1 142 47 0
1 -142 -150 0
1 -142 -92 0
1 142 -80 0
1 142 -69 0
1 -142 151 0
1 142 91 0
1 -142 77 0
1 57 -67 0
1 -57 150 0
1 57 75 0
1 57 80 0
1 57 -69 0
1 57 139 0
1 -57 152 0
1 -59 67 0
1 59 143 0
1 59 -151 0
1 59 153 0
1 -59 145 0
1 141 71 0
1 141 -59 0
1 141 50 0
1 -141 -154 0
1 141 -139 0
1 -141 -145 0
1 141 -81 0
1 -75 -142 0
1 75 68 0
1 75 -66 0
1 -75 -143 0
1 75 22 0
1 -75 70 0
1 75 -64 0
1 75 65 0
1 75 77 0
1 75 26 0
1 77 72 0
1 77 66 0
1 77 22 0
1 77 -70 0
1 -77 26 0
1 92 -82 0
1 -92 72 0
1 92 68 0
1 -92 88 0
1 92 79 0
1 92 -155 0
1 -92 156 0
1 92 22 0
1 -92 70 0
1 -92 76 0
1 91 -142 0
1 -91 -79 0
1 -91 22 0
1 91 -57 0
1 91 70 0
1 -91 153 0
1 -68 -70 0
1 68 157 0
1 -68 49 0
1 68 -86 0
1 -68 75 0
1 68 80 0
1 -68 158 0
1 68 -104 0
1 70 106 0
1 70 -86 0
1 70 -92 0
1 -70 80 0
1 70 104 0
1 70 -52 0
1 70 -89 0
1 70 159 0
1 70 -77 0
1 -72 -157 0
1 72 -160 0
1 -72 -161 0
1 -72 -75 0
1 72 -151 0
1 -72 -91 0
1 -72 -77 0
1 -73 -162 0
1 73 -72 0
1 -73 92 0
1 73 75 0
1 -73 80 0
1 -73 -158 0
1 -73 51 0
1 73 -163 0
1 73 -91 0
1 73 -81 0
1 -86 83 0
1 -86 -37 0
1 86 68 0
1 -86 -150 0
1 -86 -79 0
1 86 -156 0
1 86 17 0
1 -86 82 0
1 86 76 0
1 -86 26 0
1 89 -83 0
1 -89 -37 0
1 89 86 0
1 -89 22 0
1 89 -17 0
1 89 151 0
1 89 82 0
1 -106 -164 0
1 -106 -98 0
1 -106 -160 0
1 -106 -68 0
1 106 -87 0
1 -106 104 0
1 -106 82 0
1 -104 -164 0
1 -104 -106 0
1 104 156 0
1 -104 84 0
1 -104 -101 0
1 104 70 0
1 -104 -82 0
1 -104 76 0
1 104 -165 0
1 -156 -166 0
1 156 108 0
1 156 -106 0
1 -156 -92 0
1 156 66 0
1 156 104 0
1 76 -166 0
1 76 -108 0
1 76 -97 0
1 -76 -86 0
1 76 -92 0
1 -76 104 0
1 79 -157 0
1 -79 106 0
1 79 -82 0
1 -79 74 0
1 -79 92 0
1 79 -167 0
1 -79 -158 0
1 -79 -104 0
1 79 -91 0
1 -82 -166 0
1 -82 -168 0
1 82 106 0
1 -82 86 0
1 -82 -92 0
1 82 -79 0
1 -82 169 0
1 -82 -104 0
1 -82 170 0
1 -97 164 0
1 -97 157 0
1 97 -90 0
1 97 87 0
1 97 84 0
1 100 164 0
1 100 97 0
1 100 -94 0
1 -100 -90 0
1 -100 87 0
1 -100 84 0
1 100 158 0
1 -100 -105 0
1 -100 -76 0
1 -100 165 0
1 108 -164 0
1 108 168 0
1 108 171 0
1 -108 -94 0
1 108 156 0
1 -108 90 0
1 -108 165 0
1 -110 164 0
1 110 108 0
1 110 -94 0
1 110 -156 0
1 -110 90 0
1 110 -172 0
1 110 76 0
1 -87 -164 0
1 87 97 0
1 -87 -106 0
1 -87 -109 0
1 87 -110 0
1 87 17 0
1 87 100 0
1 87 -104 0
1 164 107 0
1 164 83 0
1 164 173 0
1 164 -174 0
1 -164 -87 0
1 -164 100 0
1 164 -104 0
1 -164 -175 0
1 -164 -176 0
1 90 -166 0
1 90 173 0
1 -90 -177 0
1 -90 169 0
1 90 -178 0
1 -90 104 0
1 -90 165 0
1 90 179 0
1 165 166 0
1 165 -108 0
1 165 97 0
1 165 106 0
1 165 177 0
1 -165 169 0
1 165 -110 0
1 165 100 0
1 -165 104 0
1 165 -175 0
1 -165 179 0
1 107 171 0
1 -107 -96 0
1 107 -109 0
1 107 -87 0
1 -107 180 0
1 107 -105 0
1 109 103 0
1 109 96 0
1 109 169 0
1 109 87 0
1 -176 -164 0
1 176 -171 0
1 176 -181 0
1 176 111 0
1 -176 182 0
1 174 -171 0
1 174 -103 0
1 174 177 0
1 -174 180 0
1 174 -172 0
1 174 182 0
1 172 -107 0
1 172 -183 0
1 172 184 0
1 -172 -185 0
1 -172 -174 0
1 -172 110 0
1 172 -85 0
1 -172 186 0
1 103 107 0
1 103 -174 0
1 103 -110 0
1 -103 -172 0
1 -103 -187 0
1 -103 188 0
1 103 189 0
1 103 176 0
1 -180 -108 0
1 -180 -171 0
1 -180 183 0
1 -180 -174 0
1 -180 -109 0
1 -180 -84 0
1 -180 190 0
1 180 -187 0
1 -180 175 0
1 -171 -107 0
1 -171 108 0
1 171 -173 0
1 -171 187 0
1 -171 191 0
1 171 -176 0
1 189 -181 0
1 -189 -172 0
1 -189 111 0
1 185 103 0
1 -185 -111 0
1 -188 -181 0
1 -188 -184 0
1 -188 192 0
1 -188 -111 0
1 -188 182 0
1 184 182 0
1 -184 -181 0
1 -184 192 0
1 -184 193 0
1 -184 111 0
1 184 -188 0
1 -182 -194 0
1 182 192 0
1 182 174 0
1 -182 195 0
1 -182 42 0
1 -182 -188 0
1 182 -196 0
1 -182 -176 0
1 -192 -96 0
1 -192 -184 0
1 -192 185 0
1 -192 -174 0
1 192 -195 0
1 192 -176 0
1 111 197 0
1 111 -183 0
1 -111 184 0
1 111 -105 0
1 -111 187 0
1 111 188 0
1 -181 -197 0
1 -181 -94 0
1 -181 198 0
1 181 -187 0
1 -181 -188 0
1 -199 -200 0
1 -199 201 0
1 -199 112 0
1 -114 202 0
1 -114 203 0
1 114 200 0
1 -114 -201 0
1 -204 -202 0
1 204 -122 0
1 204 -203 0
1 -204 205 0
1 -204 53 0
1 204 -206 0
1 -122 202 0
1 -122 205 0
1 122 200 0
1 122 -201 0
1 122 -207 0
1 -203 127 0
1 203 -114 0
1 203 130 0
1 -203 204 0
1 203 -199 0
1 -201 126 0
1 -201 127 0
1 201 -122 0
1 201 -203 0
1 201 -128 0
1 201 -204 0
1 201 199 0
1 202 208 0
1 202 -114 0
1 202 204 0
1 -200 -122 0
1 200 -114 0
1 -130 120 0
1 130 -127 0
1 130 -209 0
1 130 201 0
1 -127 -61 0
1 127 203 0
1 -127 -205 0
1 -127 -201 0
1 127 -206 0
1 128 -203 0
1 -128 -209 0
1 -128 210 0
1 -128 211 0
1 -128 -116 0
1 -128 -62 0
1 128 206 0
1 126 -120 0
1 -126 203 0
1 126 -205 0
1 -126 -207 0
1 209 -136 0
1 209 126 0
1 209 122 0
1 209 -124 0
1 -209 -128 0
1 -209 130 0
1 209 -207 0
1 207 -136 0
1 -207 -127 0
1 -207 -122 0
1 -207 124 0
1 -207 -204 0
1 -205 127 0
1 -205 212 0
1 205 -128 0
1 206 127 0
1 206 -122 0
1 -206 -128 0
1 -206 -204 0
1 124 -213 0
1 124 -123 0
1 124 -120 0
1 124 -209 0
1 124 -207 0
1 -125 213 0
1 125 120 0
1 125 -115 0
1 125 -132 0
1 125 116 0
1 125 -123 0
1 125 -207 0
1 137 -214 0
1 137 215 0
1 -137 -216 0
1 136 213 0
1 -136 71 0
1 -136 214 0
1 136 -129 0
1 -136 -132 0
1 136 -209 0
1 -136 210 0
1 136 137 0
1 136 -217 0
1 136 -216 0
1 136 207 0
1 211 -136 0
1 -211 -148 0
1 -211 -137 0
1 -211 -218 0
1 -211 -128 0
1 211 -146 0
1 -214 135 0
1 214 -126 0
1 -214 219 0
1 -214 211 0
1 -214 -137 0
1 214 -124 0
1 214 146 0
1 210 -220 0
1 210 136 0
1 210 125 0
1 210 -126 0
1 -210 137 0
1 -210 124 0
1 -213 221 0
1 -213 222 0
1 -213 -210 0
1 -213 -124 0
1 213 128 0
1 -149 135 0
1 149 -214 0
1 149 -129 0
1 -149 215 0
1 -149 132 0
1 149 -211 0
1 -149 -216 0
1 -149 -117 0
1 -135 67 0
1 -135 132 0
1 135 -121 0
1 135 -133 0
1 -135 -217 0
1 -135 134 0
1 -148 -129 0
1 -148 -138 0
1 -148 223 0
1 -148 80 0
1 148 224 0
1 148 -134 0
1 -148 -146 0
1 -146 214 0
1 146 -215 0
1 146 223 0
1 146 148 0
1 146 216 0
1 216 -135 0
1 -216 136 0
1 216 -225 0
1 216 -226 0
1 -216 -123 0
1 -216 153 0
1 216 145 0
1 215 136 0
1 -215 -115 0
1 -215 -155 0
1 215 -143 0
1 -215 148 0
1 -215 -137 0
1 -215 227 0
1 215 -153 0
1 -215 145 0
1 -217 136 0
1 217 -225 0
1 -217 219 0
1 217 -137 0
1 217 -228 0
1 -217 -227 0
1 -217 229 0
1 217 -230 0
1 -129 136 0
1 -129 120 0
1 -129 231 0
1 -129 -232 0
1 -129 -219 0
1 -129 -137 0
1 129 227 0
1 129 229 0
1 129 -230 0
1 -143 -215 0
1 143 -138 0
1 -143 75 0
1 143 -140 0
1 143 -141 0
1 -143 -216 0
1 143 233 0
1 -143 -134 0
1 -145 -59 0
1 145 133 0
1 145 140 0
1 -145 141 0
1 145 -216 0
1 145 -233 0
1 -145 77 0
1 145 -234 0
1 -155 -235 0
1 155 -59 0
1 155 -92 0
1 155 223 0
1 -155 147 0
1 -155 -141 0
1 -155 -216 0
1 -155 236 0
1 -153 235 0
1 -153 -59 0
1 -153 138 0
1 -153 144 0
1 -153 -141 0
1 153 -216 0
1 -153 91 0
1 153 -233 0
1 -153 -229 0
1 153 234 0
1 -153 236 0
1 -234 237 0
1 234 -150 0
1 -234 -223 0
1 234 -238 0
1 234 163 0
1 -234 -153 0
1 234 -145 0
1 234 -239 0
1 -223 237 0
1 223 -143 0
1 223 -148 0
1 -223 238 0
1 223 163 0
1 -233 -240 0
1 -233 117 0
1 233 148 0
1 -233 -153 0
1 -233 -145 0
1 233 146 0
1 -138 -237 0
1 138 132 0
1 -138 225 0
1 138 233 0
1 138 -241 0
1 150 -142 0
1 -150 -86 0
1 150 -225 0
1 -150 -223 0
1 150 147 0
1 150 -144 0
1 -150 57 0
1 150 151 0
1 151 235 0
1 151 142 0
1 -151 223 0
1 -151 -147 0
1 -151 -141 0
1 151 -234 0
1 151 -236 0
1 -160 242 0
1 160 -72 0
1 160 152 0
1 -160 73 0
1 -160 234 0
1 163 -235 0
1 -163 147 0
1 -163 73 0
1 -163 241 0
1 -163 234 0
1 163 -236 0
1 235 -243 0
1 -235 168 0
1 -235 -244 0
1 -235 -155 0
1 -235 144 0
1 -144 -235 0
1 -144 243 0
1 144 168 0
1 144 -157 0
1 -144 -155 0
1 144 140 0
1 144 245 0
1 -144 246 0
1 144 -158 0
1 -236 -247 0
1 -236 243 0
1 236 -150 0
1 236 -155 0
1 236 -147 0
1 -236 151 0
1 236 -153 0
1 147 -243 0
1 -147 237 0
1 -147 -155 0
1 -147 133 0
1 147 245 0
1 147 248 0
1 -147 238 0
1 147 163 0
1 147 153 0
1 157 -97 0
1 -157 237 0
1 -157 -72 0
1 157 -249 0
1 157 68 0
1 157 -144 0
1 157 -73 0
1 157 -70 0
1 -158 -235 0
1 -158 242 0
1 158 249 0
1 158 -68 0
1 158 79 0
1 -158 -144 0
1 158 -154 0
1 158 238 0
1 158 -82 0
1 -168 235 0
1 168 108 0
1 168 -250 0
1 168 161 0
1 -168 251 0
1 -168 -79 0
1 -168 -167 0
1 -168 154 0
1 -168 162 0
1 167 -168 0
1 167 242 0
1 167 249 0
1 167 251 0
1 -167 144 0
1 -167 -110 0
1 167 154 0
1 -167 152 0
1 167 162 0
1 -167 159 0
1 167 -82 0
1 249 -168 0
1 249 157 0
1 249 -142 0
1 -249 252 0
1 249 253 0
1 249 -177 0
1 -249 167 0
1 -249 179 0
1 152 166 0
1 152 249 0
1 -152 -253 0
1 -152 169 0
1 152 158 0
1 152 -163 0
1 -242 59 0
1 -242 157 0
1 -242 -253 0
1 242 -254 0
1 -242 -167 0
1 -154 -255 0
1 154 243 0
1 -154 242 0
1 -154 -157 0
1 -154 -160 0
1 154 -254 0
1 154 -141 0
1 154 158 0
1 154 256 0
1 -166 107 0
1 166 249 0
1 166 251 0
1 166 79 0
1 166 152 0
1 -166 162 0
1 -166 159 0
1 166 82 0
1 -166 165 0
1 169 161 0
1 169 251 0
1 -169 -109 0
1 -169 152 0
1 169 -162 0
1 169 -159 0
1 179 161 0
1 179 251 0
1 179 -257 0
1 -179 90 0
1 -179 -152 0
1 -179 -170 0
1 -179 258 0
1 -179 -176 0
1 177 161 0
1 177 -179 0
1 177 -254 0
1 177 -90 0
1 177 152 0
1 -177 159 0
1 177 258 0
1 -251 166 0
1 -251 -168 0
1 251 -159 0
1 -251 259 0
1 -251 177 0
1 251 169 0
1 -251 167 0
1 -251 -191 0
1 251 179 0
1 -159 -259 0
1 159 -251 0
1 -159 173 0
1 -159 -177 0
1 -159 169 0
1 -159 -167 0
1 159 260 0
1 -161 -166 0
1 161 -168 0
1 161 259 0
1 161 253 0
1 162 166 0
1 -162 259 0
1 -162 161 0
1 -162 261 0
1 162 -177 0
1 -162 169 0
1 162 -167 0
1 162 262 0
1 -162 -260 0
1 175 164 0
1 175 173 0
1 175 -257 0
1 -175 90 0
1 -175 87 0
1 175 180 0
1 -175 159 0
1 173 -171 0
1 173 -251 0
1 173 -185 0
1 173 263 0
1 -173 -253 0
1 -173 90 0
1 -173 87 0
1 173 -180 0
1 173 159 0
1 173 -170 0
1 173 -175 0
1 173 165 0
1 -191 -264 0
1 191 171 0
1 -191 251 0
1 191 -265 0
1 -191 180 0
1 -191 -159 0
1 -191 -188 0
1 191 -266 0
1 193 267 0
1 -193 -171 0
1 193 -251 0
1 193 263 0
1 193 -170 0
1 193 178 0
1 193 -265 0
1 193 159 0
1 -257 268 0
1 257 197 0
1 257 -173 0
1 -257 156 0
1 257 -269 0
1 257 187 0
1 258 -183 0
1 258 173 0
1 -258 -177 0
1 258 269 0
1 -258 187 0
1 258 -76 0
1 -258 175 0
1 -258 179 0
1 263 259 0
1 263 79 0
1 -263 -170 0
1 263 -269 0
1 -263 270 0
1 263 191 0
1 -263 -175 0
1 263 179 0
1 170 268 0
1 -170 -271 0
1 170 193 0
1 170 263 0
1 -170 177 0
1 -170 269 0
1 170 -270 0
1 170 -272 0
1 170 179 0
1 -187 -264 0
1 -187 -267 0
1 -187 171 0
1 187 -103 0
1 187 183 0
1 -187 -257 0
1 187 -178 0
1 -187 -265 0
1 187 -180 0
1 -187 -172 0
1 187 -111 0
1 -187 260 0
1 -183 -171 0
1 -183 -103 0
1 183 -181 0
1 -183 -257 0
1 183 178 0
1 -183 265 0
1 183 -187 0
1 -183 -258 0
1 -198 273 0
1 198 197 0
1 198 -270 0
1 -198 257 0
1 198 -265 0
1 -198 -190 0
1 198 186 0
1 -197 181 0
1 -197 274 0
1 197 -178 0
1 -197 265 0
1 -197 -111 0
1 265 -194 0
1 265 -197 0
1 265 -183 0
1 -265 -193 0
1 -265 275 0
1 265 -87 0
1 -265 -198 0
1 -267 276 0
1 267 -164 0
1 -267 183 0
1 -267 277 0
1 -267 195 0
1 267 -198 0
1 267 187 0
1 -178 278 0
1 -178 -268 0
1 178 193 0
1 178 269 0
1 178 -198 0
1 -178 -187 0
1 264 279 0
1 264 -268 0
1 -264 -197 0
1 -264 -183 0
1 264 -193 0
1 -264 -275 0
1 264 -280 0
1 264 191 0
1 195 267 0
1 -195 -273 0
1 -195 274 0
1 195 181 0
1 -195 265 0
1 195 -190 0
1 195 -111 0
1 -194 268 0
1 194 274 0
1 194 181 0
1 194 192 0
1 -194 -265 0
1 -194 195 0
1 -194 -190 0
1 -194 -186 0
1 -277 -276 0
1 277 -274 0
1 -277 -280 0
1 277 -265 0
1 -277 -190 0
1 277 281 0
1 -276 267 0
1 -276 274 0
1 276 -282 0
1 276 265 0
1 276 186 0
1 186 -197 0
1 186 283 0
1 -186 198 0
1 186 -172 0
1 -274 276 0
1 -274 -195 0
1 -190 -278 0
1 -190 -194 0
1 190 273 0
1 190 -197 0
1 -190 275 0
1 190 195 0
1 -190 -198 0
1 -190 -284 0
1 -273 276 0
1 -273 -171 0
1 273 -285 0
1 -273 275 0
1 273 190 0
1 286 274 0
1 286 -287 0
1 286 -275 0
1 286 -288 0
1 -288 278 0
1 -288 -274 0
1 -288 282 0
1 -288 186 0
1 -288 281 0
1 288 196 0
1 -283 -274 0
1 283 282 0
1 -283 -186 0
1 283 281 0
1 283 196 0
1 -283 289 0
1 289 -287 0
1 -289 186 0
1 -196 286 0
1 -196 182 0
1 287 -276 0
1 287 -286 0
1 -287 277 0
1 287 -289 0
1 -287 288 0
1 281 -282 0
1 281 -277 0
1 -281 111 0
1 -281 289 0
1 -281 288 0
1 282 277 0
1 282 289 0
1 -290 213 0
1 -290 -221 0
1 290 208 0
1 290 209 0
1 290 -149 0
1 -290 -206 0
1 -221 209 0
1 -221 -290 0
1 221 291 0
1 221 292 0
1 -224 220 0
1 -224 213 0
1 224 148 0
1 -224 -293 0
1 224 291 0
1 -224 -292 0
1 -224 -294 0
1 220 213 0
1 -220 -208 0
1 220 212 0
1 220 -210 0
1 -220 293 0
1 -220 -292 0
1 -295 -219 0
1 -295 224 0
1 295 229 0
1 292 220 0
1 -292 221 0
1 292 219 0
1 -292 224 0
1 292 290 0
1 -292 201 0
1 292 229 0
1 -292 -296 0
1 -208 220 0
1 -208 221 0
1 208 -291 0
1 -291 220 0
1 -291 -221 0
1 291 297 0
1 219 298 0
1 219 213 0
1 219 -214 0
1 -219 294 0
1 219 -210 0
1 219 292 0
1 219 -230 0
1 -230 213 0
1 -230 219 0
1 -230 210 0
1 -230 294 0
1 232 -298 0
1 -232 -222 0
1 232 155 0
1 -232 293 0
1 232 -299 0
1 -232 -229 0
1 229 298 0
1 -229 -222 0
1 229 300 0
1 229 232 0
1 -229 295 0
1 229 212 0
1 -229 -299 0
1 -229 218 0
1 229 -153 0
1 -229 -292 0
1 229 -294 0
1 -293 301 0
1 293 225 0
1 293 -232 0
1 -293 209 0
1 293 -241 0
1 293 -227 0
1 -293 -229 0
1 -293 230 0
1 -298 -220 0
1 298 -240 0
1 -298 232 0
1 298 -227 0
1 -298 -229 0
1 -212 -220 0
1 212 301 0
1 212 294 0
1 212 -232 0
1 212 302 0
1 -212 -303 0
1 212 230 0
1 294 301 0
1 294 -212 0
1 294 -224 0
1 -294 303 0
1 -294 229 0
1 294 230 0
1 294 304 0
1 -225 -138 0
1 -225 -299 0
1 -225 -218 0
1 225 216 0
1 -225 227 0
1 227 -300 0
1 -227 -129 0
1 227 -215 0
1 227 216 0
1 -227 217 0
1 227 151 0
1 -240 -298 0
1 240 228 0
1 240 160 0
1 240 305 0
1 240 -138 0
1 -240 -293 0
1 240 -241 0
1 240 -226 0
1 -240 -233 0
1 -241 -231 0
1 -241 -293 0
1 241 -228 0
1 241 -226 0
1 241 233 0
1 218 -250 0
1 -218 -237 0
1 -218 -240 0
1 -218 -232 0
1 -218 -248 0
1 -218 -306 0
1 -218 -229 0
1 -300 307 0
1 300 -308 0
1 300 -240 0
1 -300 225 0
1 -300 -218 0
1 -300 241 0
1 300 227 0
1 299 -307 0
1 299 -309 0
1 299 -225 0
1 299 232 0
1 -299 210 0
1 299 -310 0
1 299 227 0
1 -222 -213 0
1 222 309 0
1 -222 -301 0
1 222 240 0
1 -222 225 0
1 222 -232 0
1 -222 311 0
1 222 241 0
1 -222 227 0
1 222 229 0
1 -237 -300 0
1 -237 157 0
1 237 301 0
1 237 -305 0
1 237 138 0
1 -237 -223 0
1 -237 228 0
1 -237 -233 0
1 237 -234 0
1 -238 300 0
1 -238 -237 0
1 -238 231 0
1 238 -138 0
1 -238 228 0
1 -238 -234 0
1 238 236 0
1 -250 -300 0
1 -250 -231 0
1 250 -305 0
1 -250 -312 0
1 -250 248 0
1 -250 228 0
1 250 313 0
1 250 236 0
1 248 300 0
1 -248 -147 0
1 248 310 0
1 -248 218 0
1 248 313 0
1 -248 -239 0
1 -248 236 0
1 -226 237 0
1 -226 -305 0
1 -226 -248 0
1 -226 241 0
1 226 -216 0
1 305 -237 0
1 305 314 0
1 -305 -315 0
1 305 -254 0
1 305 245 0
1 -305 -238 0
1 -305 241 0
1 -305 226 0
1 -305 316 0
1 228 -317 0
1 228 250 0
1 228 -311 0
1 -228 -248 0
1 -228 238 0
1 -228 241 0
1 -228 318 0
1 -231 -250 0
1 -231 237 0
1 231 228 0
1 -231 -129 0
1 231 -319 0
1 -231 311 0
1 231 238 0
1 243 -235 0
1 -243 307 0
1 -243 242 0
1 -243 -154 0
1 243 -239 0
1 243 -236 0
1 -245 235 0
1 -245 -243 0
1 245 305 0
1 -245 -312 0
1 -245 -147 0
1 -245 -144 0
1 -245 311 0
1 -245 154 0
1 -245 -226 0
1 -255 247 0
1 255 312 0
1 -255 -254 0
1 255 -320 0
1 -255 246 0
1 -255 -226 0
1 255 313 0
1 -255 -179 0
1 254 -247 0
1 254 244 0
1 -254 -321 0
1 -254 -320 0
1 254 -322 0
1 -254 -239 0
1 239 255 0
1 239 -323 0
1 239 253 0
1 -239 -254 0
1 -239 245 0
1 -239 248 0
1 -239 -324 0
1 -239 234 0
1 -312 261 0
1 312 -223 0
1 -312 -266 0
1 -313 -255 0
1 -313 243 0
1 313 -323 0
1 313 321 0
1 -313 -325 0
1 313 -315 0
1 -313 -245 0
1 313 -326 0
1 313 233 0
1 -313 327 0
1 -313 -316 0
1 321 255 0
1 321 250 0
1 -321 -325 0
1 -321 315 0
1 321 -245 0
1 -253 244 0
1 -253 242 0
1 253 161 0
1 253 312 0
1 253 315 0
1 -253 -320 0
1 253 -246 0
1 -253 -154 0
1 253 152 0
1 253 -162 0
1 253 239 0
1 -266 244 0
1 -266 161 0
1 266 -312 0
1 266 -246 0
1 -266 191 0
1 -266 327 0
1 261 -247 0
1 -261 244 0
1 261 252 0
1 261 -161 0
1 -261 -312 0
1 -261 320 0
1 261 256 0
1 261 -328 0
1 261 -162 0
1 -261 239 0
1 244 -255 0
1 -244 -235 0
1 -244 329 0
1 -244 -330 0
1 244 271 0
1 -244 253 0
1 -244 254 0
1 -244 270 0
1 246 -255 0
1 246 -330 0
1 246 -271 0
1 246 253 0
1 -246 331 0
1 -246 270 0
1 -246 -260 0
1 -247 -255 0
1 -247 -330 0
1 -247 323 0
1 247 -261 0
1 -247 253 0
1 -247 -236 0
1 -320 247 0
1 -320 -332 0
1 -320 323 0
1 320 -253 0
1 -320 -254 0
1 -320 331 0
1 320 -333 0
1 -320 324 0
1 -260 259 0
1 -260 -251 0
1 260 328 0
1 -260 187 0
1 260 -159 0
1 260 -170 0
1 259 244 0
1 259 183 0
1 259 -323 0
1 259 251 0
1 -259 -263 0
1 259 -328 0
1 259 162 0
1 259 -260 0
1 259 -170 0
1 -270 -334 0
1 -270 271 0
1 -270 252 0
1 270 335 0
1 270 -336 0
1 -270 263 0
1 -270 246 0
1 -270 256 0
1 270 198 0
1 -270 337 0
1 271 -197 0
1 -271 -334 0
1 -271 -332 0
1 271 252 0
1 271 -335 0
1 271 -246 0
1 -271 328 0
1 -271 262 0
1 271 337 0
1 252 338 0
1 252 -279 0
1 252 249 0
1 252 -261 0
1 -252 -339 0
1 -252 280 0
1 -252 -269 0
1 -252 328 0
1 -252 -270 0
1 -252 260 0
1 252 -266 0
1 328 338 0
1 -328 -279 0
1 -328 -259 0
1 328 339 0
1 -328 280 0
1 328 152 0
1 -328 -266 0
1 334 -338 0
1 -334 340 0
1 334 242 0
1 -334 330 0
1 -334 259 0
1 334 -331 0
1 -256 -338 0
1 -256 330 0
1 256 271 0
1 256 259 0
1 256 261 0
1 -256 -339 0
1 256 341 0
1 -256 -331 0
1 269 -264 0
1 -269 -268 0
1 -269 170 0
1 269 258 0
1 -268 330 0
1 268 252 0
1 -268 -335 0
1 268 -336 0
1 -268 -178 0
1 -268 269 0
1 268 258 0
1 280 264 0
1 -280 -335 0
1 280 277 0
1 280 328 0
1 -280 -272 0
1 280 342 0
1 279 340 0
1 -279 336 0
1 279 -343 0
1 -279 178 0
1 -279 272 0
1 336 268 0
1 -336 275 0
1 -336 -280 0
1 -336 -270 0
1 336 284 0
1 -337 278 0
1 337 271 0
1 337 336 0
1 337 285 0
1 -337 -280 0
1 -337 -269 0
1 335 271 0
1 335 -339 0
1 335 270 0
1 -335 262 0
1 335 -344 0
1 262 279 0
1 262 268 0
1 -262 -339 0
1 262 280 0
1 -262 -269 0
1 -262 270 0
1 275 264 0
1 -275 267 0
1 275 345 0
1 275 178 0
1 275 190 0
1 -275 272 0
1 275 -342 0
1 -278 -264 0
1 278 -273 0
1 278 -336 0
1 278 -343 0
1 -278 178 0
1 278 265 0
1 278 -337 0
1 -278 272 0
1 285 -273 0
1 285 336 0
1 -285 345 0
1 285 -346 0
1 -285 272 0
1 285 -284 0
1 -284 285 0
1 284 345 0
1 -284 -337 0
1 284 -342 0
1 284 -344 0
1 -345 -257 0
1 -342 -258 0
1 342 -284 0
1 -343 263 0
1 343 285 0
1 -343 275 0
1 -343 -272 0
1 -272 279 0
1 272 -285 0
1 272 275 0
1 272 284 0
1 301 -298 0
1 -301 -222 0
1 -301 347 0
1 301 -348 0
1 -301 212 0
1 301 293 0
1 -301 299 0
1 -301 -297 0
1 -303 -293 0
1 303 -299 0
1 -303 -238 0
1 -303 -296 0
1 -309 349 0
1 -309 -250 0
1 -309 -347 0
1 -309 -350 0
1 309 -296 0
1 -310 349 0
1 310 -222 0
1 310 309 0
1 310 296 0
1 310 304 0
1 -348 317 0
1 -348 -351 0
1 348 303 0
1 296 -307 0
1 296 -309 0
1 296 -310 0
1 296 -303 0
1 -296 -352 0
1 347 -309 0
1 347 301 0
1 -347 -303 0
1 307 -349 0
1 307 -222 0
1 -307 300 0
1 307 -348 0
1 -307 302 0
1 307 311 0
1 -307 350 0
1 -307 228 0
1 307 296 0
1 -307 304 0
1 -311 -349 0
1 -311 -222 0
1 311 -300 0
1 -311 -348 0
1 -311 -350 0
1 311 299 0
1 311 -218 0
1 311 -304 0
1 317 255 0
1 -317 -353 0
1 -317 308 0
1 -317 -354 0
1 -317 -306 0
1 317 -228 0
1 317 304 0
1 -322 353 0
1 -322 -254 0
1 -322 354 0
1 -322 306 0
1 -322 296 0
1 -350 -349 0
1 -350 309 0
1 350 -293 0
1 -350 -355 0
1 350 -310 0
1 350 356 0
1 350 -327 0
1 350 316 0
1 -349 -298 0
1 -349 -317 0
1 -349 -357 0
1 349 307 0
1 349 -309 0
1 -349 -358 0
1 -349 -315 0
1 349 -311 0
1 -349 310 0
1 349 -356 0
1 -302 -309 0
1 302 358 0
1 302 212 0
1 -302 310 0
1 -302 304 0
1 304 -317 0
1 -304 -307 0
1 304 294 0
1 304 358 0
1 304 -311 0
1 304 -356 0
1 -316 231 0
1 316 305 0
1 -316 -228 0
1 -316 226 0
1 315 349 0
1 -315 -253 0
1 -315 350 0
1 315 306 0
1 315 226 0
1 -315 316 0
1 -327 349 0
1 -327 319 0
1 327 314 0
1 327 -321 0
1 327 -306 0
1 -327 -359 0
1 -327 266 0
1 -325 349 0
1 -325 308 0
1 325 -319 0
1 325 261 0
1 -325 -306 0
1 325 318 0
1 -325 313 0
1 -325 -327 0
1 306 317 0
1 -306 -308 0
1 306 360 0
1 306 325 0
1 -306 322 0
1 306 -361 0
1 -306 324 0
1 306 327 0
1 -308 317 0
1 -308 360 0
1 -308 -332 0
1 308 -322 0
1 308 -306 0
1 308 324 0
1 308 327 0
1 308 -316 0
1 354 -360 0
1 354 358 0
1 354 322 0
1 -354 -299 0
1 354 327 0
1 -354 -316 0
1 353 -362 0
1 -353 360 0
1 -353 358 0
1 353 325 0
1 353 322 0
1 353 354 0
1 -353 -363 0
1 -353 327 0
1 -324 247 0
1 324 308 0
1 324 323 0
1 324 -318 0
1 324 -260 0
1 -324 356 0
1 -323 247 0
1 -323 -308 0
1 323 -259 0
1 323 358 0
1 -323 321 0
1 323 -314 0
1 323 312 0
1 323 -320 0
1 -323 -306 0
1 323 -318 0
1 -323 -324 0
1 323 239 0
1 333 308 0
1 333 -319 0
1 -333 -314 0
1 333 -270 0
1 -333 -363 0
1 -333 -326 0
1 333 -364 0
1 -332 247 0
1 -332 308 0
1 -332 -365 0
1 -332 333 0
1 -332 318 0
1 -332 364 0
1 359 -325 0
1 -359 -341 0
1 359 331 0
1 -359 333 0
1 -359 -324 0
1 314 -366 0
1 -314 -330 0
1 314 325 0
1 -314 -367 0
1 314 341 0
1 314 -333 0
1 314 324 0
1 -314 359 0
1 -314 -327 0
1 -318 366 0
1 -318 368 0
1 -318 332 0
1 318 325 0
1 -318 367 0
1 318 -361 0
1 318 333 0
1 -318 324 0
1 -318 327 0
1 319 -366 0
1 319 368 0
1 -319 325 0
1 319 369 0
1 -319 361 0
1 -319 -333 0
1 -319 318 0
1 -319 -327 0
1 331 -334 0
1 331 -330 0
1 -331 -320 0
1 -331 -256 0
1 -331 -361 0
1 331 -326 0
1 330 244 0
1 330 268 0
1 330 -360 0
1 -330 -314 0
1 -330 365 0
1 -330 -370 0
1 -330 246 0
1 -330 -256 0
1 -330 -331 0
1 -330 364 0
1 -341 -371 0
1 341 -334 0
1 -341 -370 0
1 -341 -372 0
1 341 373 0
1 341 -280 0
1 341 -256 0
1 341 369 0
1 341 -359 0
1 -340 -371 0
1 340 329 0
1 340 -368 0
1 340 334 0
1 -340 370 0
1 -340 -372 0
1 340 256 0
1 340 -364 0
1 364 -338 0
1 -364 340 0
1 364 346 0
1 364 341 0
1 370 -340 0
1 370 -330 0
1 -370 -364 0
1 370 -332 0
1 -370 -339 0
1 370 -341 0
1 326 374 0
1 326 330 0
1 -326 -341 0
1 326 -331 0
1 365 -374 0
1 365 366 0
1 -365 321 0
1 -365 -375 0
1 365 341 0
1 365 331 0
1 339 338 0
1 -339 -371 0
1 -339 -329 0
1 -339 -367 0
1 -339 -328 0
1 -339 -262 0
1 -338 -278 0
1 338 366 0
1 -338 -329 0
1 -338 -334 0
1 338 252 0
1 -338 335 0
1 338 373 0
1 338 256 0
1 -338 328 0
1 338 -262 0
1 -338 364 0
1 -346 329 0
1 -346 -364 0
1 -346 -285 0
1 346 372 0
1 344 -370 0
1 344 -346 0
1 -344 372 0
1 -344 373 0
1 344 284 0
1 -329 340 0
1 -329 -346 0
1 -329 339 0
1 329 373 0
1 -329 -341 0
1 -373 329 0
1 -373 -339 0
1 371 346 0
1 -371 372 0
1 -371 -341 0
1 -372 338 0
1 -372 371 0
1 372 340 0
1 372 -320 0
1 -372 -346 0
1 356 358 0
1 -356 -376 0
1 356 351 0
1 356 302 0
1 356 -354 0
1 356 352 0
1 358 349 0
1 358 353 0
1 358 -323 0
1 -358 351 0
1 358 -350 0
1 358 354 0
1 -358 377 0
1 -358 -304 0
1 -363 357 0
1 -363 -353 0
1 -363 -378 0
1 363 -376 0
1 363 -354 0
1 363 352 0
1 378 379 0
1 378 376 0
1 -378 -351 0
1 378 -355 0
1 -378 -377 0
1 -378 -352 0
1 351 -368 0
1 -351 -360 0
1 351 378 0
1 351 352 0
1 -351 -358 0
1 -351 -348 0
1 351 361 0
1 -351 -363 0
1 351 356 0
1 352 -378 0
1 -352 369 0
1 352 296 0
1 -376 -378 0
1 -376 -347 0
1 376 377 0
1 -377 -378 0
1 -377 297 0
1 361 -357 0
1 -361 308 0
1 -361 360 0
1 -361 319 0
1 -361 355 0
1 -361 331 0
1 -361 306 0
1 361 -318 0
1 -361 -352 0
1 360 -379 0
1 360 -357 0
1 -360 -330 0
1 -360 -308 0
1 360 319 0
1 -360 -380 0
1 -360 -355 0
1 360 306 0
1 360 318 0
1 -369 379 0
1 -369 -381 0
1 -369 -355 0
1 -369 341 0
1 -369 -352 0
1 368 380 0
1 -368 318 0
1 -368 352 0
1 -355 -374 0
1 355 366 0
1 355 368 0
1 355 360 0
1 355 378 0
1 -355 -375 0
1 355 -367 0
1 -355 369 0
1 -357 -374 0
1 357 -349 0
1 -357 -368 0
1 -357 355 0
1 357 369 0
1 -380 379 0
1 380 378 0
1 380 302 0
1 380 -369 0
1 380 361 0
1 380 363 0
1 -379 360 0
1 -379 378 0
1 379 380 0
1 379 -361 0
1 367 -357 0
1 -367 381 0
1 367 -319 0
1 367 355 0
1 -367 -382 0
1 -367 359 0
1 -367 -326 0
1 366 -338 0
1 -366 -362 0
1 -366 -381 0
1 -366 -365 0
1 -366 367 0
1 -366 383 0
1 -375 -374 0
1 375 -383 0
1 374 -357 0
1 374 -381 0
1 374 375 0
1 374 -355 0
1 -374 -383 0
1 -374 382 0
1 -374 326 0
1 382 368 0
1 382 -381 0
1 -382 369 0
1 381 374 0
1 -381 366 0
1 -381 367 0
1 -381 -369 0
1 381 382 0
1 -383 -368 0
1 383 -362 0
1 362 -374 0
1 362 -375 0
1 -362 367 0
